Maximize
  50 x_regular_batch + 30 x_premium_batch
Subject To
  c1: 50 x_regular_batch + 40 x_premium_batch <= 3000
  c2: 40 x_regular_batch + 60 x_premium_batch <= 3500
  c3: x_regular_batch - x_premium_batch <= 0
  c4: x_regular_batch >= 10
End